* ENCODING=ISO-8859-1
NAME          ilog.cplex
ROWS
 N  obj1    
 G  c1      
 L  c2      
 L  c3      
 L  c4      
 L  c5      
 L  c6      
 L  c7      
 L  c8      
 L  c9      
 L  c10     
 L  c11     
 L  c12     
 L  c13     
 L  c14     
 L  c15     
 L  c16     
 L  c17     
 L  c18     
 L  c19     
 L  c20     
 L  c21     
 L  c22     
 L  c23     
 L  c24     
 L  c25     
 L  c26     
 L  c27     
 L  c28     
 L  c29     
 L  c30     
 L  c31     
 L  c32     
 L  c33     
 L  c34     
 L  c35     
 L  c36     
 L  c37     
 L  c38     
 L  c39     
 L  c40     
 L  c41     
 L  c42     
 L  c43     
 L  c44     
 L  c45     
 L  c46     
 L  c47     
 L  c48     
 L  c49     
 L  c50     
 L  c51     
 L  c52     
 L  c53     
 L  c54     
 L  c55     
 L  c56     
 L  c57     
 L  c58     
 L  c59     
 L  c60     
 L  c61     
 E  c62     
 E  c63     
 E  c64     
 L  c65     
 E  c66     
 L  c67     
 G  c68     
 G  c69     
 G  c70     
 L  c71     
 G  c72     
 L  c73     
 G  c74     
 L  c75     
 G  c76     
 L  c77     
 G  c78     
 L  c79     
 G  c80     
 L  c81     
 G  c82     
 L  c83     
 G  c84     
 L  c85     
 G  c86     
 L  c87     
 G  c88     
 L  c89     
 G  c90     
 G  c91     
 L  c92     
 L  c93     
COLUMNS
    t         obj1                           -1
    t         c64                             1
    t         c69                             1
    MARK0000  'MARKER'                 'INTORG'
    x2        c1                              5
    x2        c2                              5
    x2        c9                              1
    x2        c17                             1
    x2        c33                             1
    x2        c45                             1
    x2        c49                             1
    x2        c65                            -5
    x2        c67                             1
    x2        c68                             1
    x3        c1                              2
    x3        c2                              2
    x3        c43                             1
    x3        c51                             1
    x3        c65                            -2
    x3        c67                             1
    x3        c68                             1
    x4        c1                              4
    x4        c2                              4
    x4        c25                             1
    x4        c44                             3
    x4        c65                            -4
    x4        c67                             1
    x4        c68                             1
    x5        c1                              4
    x5        c2                              4
    x5        c4                              1
    x5        c21                             1
    x5        c53                             1
    x5        c54                             1
    x5        c65                            -4
    x5        c67                             1
    x5        c68                             1
    x6        c1                              2
    x6        c2                              2
    x6        c11                             1
    x6        c52                             1
    x6        c65                            -2
    x6        c67                             1
    x6        c68                             1
    x7        c1                              2
    x7        c2                              2
    x7        c29                             1
    x7        c35                             1
    x7        c65                            -2
    x7        c67                             1
    x7        c68                             1
    x8        c1                              2
    x8        c2                              2
    x8        c14                             1
    x8        c32                             1
    x8        c65                            -2
    x8        c67                             1
    x8        c68                             1
    x9        c1                              4
    x9        c2                              4
    x9        c5                              1
    x9        c19                             1
    x9        c20                             1
    x9        c30                             1
    x9        c65                            -4
    x9        c67                             1
    x9        c68                             1
    x10       c1                              6
    x10       c2                              6
    x10       c15                             1
    x10       c23                             2
    x10       c34                             3
    x10       c65                            -6
    x10       c67                             1
    x10       c68                             1
    x11       c1                              8
    x11       c2                              8
    x11       c8                              1
    x11       c10                             1
    x11       c26                             1
    x11       c28                             1
    x11       c46                             1
    x11       c50                             1
    x11       c56                             1
    x11       c59                             1
    x11       c65                            -8
    x11       c67                             1
    x11       c68                             1
    x12       c1                              7
    x12       c2                              7
    x12       c16                             2
    x12       c22                             4
    x12       c37                             1
    x12       c65                            -7
    x12       c67                             1
    x12       c68                             1
    x13       c1                              7
    x13       c2                              7
    x13       c7                              1
    x13       c12                             1
    x13       c27                             1
    x13       c39                             1
    x13       c41                             1
    x13       c55                             1
    x13       c60                             1
    x13       c65                            -7
    x13       c67                             1
    x13       c68                             1
    x14       c1                              7
    x14       c2                              7
    x14       c3                              2
    x14       c38                             2
    x14       c40                             1
    x14       c42                             2
    x14       c65                            -7
    x14       c67                             1
    x14       c68                             1
    x15       c1                              2
    x15       c2                              2
    x15       c57                             1
    x15       c58                             1
    x15       c65                            -2
    x15       c67                             1
    x15       c68                             1
    x16       c1                              5
    x16       c2                              5
    x16       c13                             1
    x16       c24                             1
    x16       c31                             1
    x16       c36                             1
    x16       c48                             1
    x16       c65                            -5
    x16       c67                             1
    x16       c68                             1
    x17       c1                              4
    x17       c2                              4
    x17       c6                              1
    x17       c18                             1
    x17       c47                             1
    x17       c61                             1
    x17       c65                            -4
    x17       c67                             1
    x17       c68                             1
    x18       c3                             -5
    x18       c42                           -11
    x18       c62                             1
    x19       c3                             -8
    x19       c42                           -24
    x19       c62                             1
    x20       c4                             -8
    x20       c28                            -1
    x20       c35                            -5
    x20       c51                           -40
    x20       c62                             1
    x21       c5                            -12
    x21       c24                            -6
    x21       c40                          -938
    x21       c49                            -1
    x21       c52                            -2
    x21       c62                             1
    x22       c5                            -12
    x22       c40                            -1
    x22       c62                             1
    x23       c6                             -2
    x23       c62                             1
    x24       c6                            -19
    x24       c54                           -37
    x24       c62                             1
    x25       c7                            -39
    x25       c41                           -12
    x25       c62                             1
    x26       c7                            -13
    x26       c39                           -10
    x26       c62                             1
    x27       c7                            -21
    x27       c27                            -2
    x27       c46                           -28
    x27       c62                             1
    x28       c8                            -10
    x28       c14                            -3
    x28       c21                            -3
    x28       c22                           -10
    x28       c53                            -5
    x28       c62                             1
    x29       c9                            -14
    x29       c62                             1
    x30       c9                            -15
    x30       c62                             1
    x31       c9                            -14
    x31       c23                            -1
    x31       c62                             1
    x32       c9                             -9
    x32       c62                             1
    x33       c10                           -26
    x33       c15                            -7
    x33       c16                            -3
    x33       c37                           -25
    x33       c62                             1
    x34       c11                           -21
    x34       c36                            -6
    x34       c62                             1
    x35       c12                           -19
    x35       c62                             1
    x36       c13                            -3
    x36       c19                           -14
    x36       c22                            -2
    x36       c28                            -5
    x36       c62                             1
    x37       c13                            -7
    x37       c35                            -5
    x37       c62                             1
    x38       c14                            -1
    x38       c62                             1
    x39       c14                            -3
    x39       c15                            -1
    x39       c29                            -3
    x39       c62                             1
    x40       c14                            -1
    x40       c62                             1
    x41       c15                           -10
    x41       c50                            -5
    x41       c62                             1
    x42       c15                            -5
    x42       c62                             1
    x43       c15                           -15
    x43       c53                            -6
    x43       c62                             1
    x44       c15                            -6
    x44       c37                           -15
    x44       c62                             1
    x45       c15                            -2
    x45       c62                             1
    x46       c15                           -10
    x46       c35                            -4
    x46       c62                             1
    x47       c15                            -2
    x47       c23                            -7
    x47       c62                             1
    x48       c15                            -5
    x48       c62                             1
    x49       c16                            -1
    x49       c62                             1
    x50       c16                            -1
    x50       c35                           -12
    x50       c62                             1
    x51       c17                            -1
    x51       c20                           -11
    x51       c22                            -8
    x51       c43                           -15
    x51       c62                             1
    x52       c18                            -1
    x52       c51                            -1
    x52       c62                             1
    x53       c18                            -2
    x53       c56                            -3
    x53       c62                             1
    x54       c18                            -2
    x54       c62                             1
    x55       c19                           -14
    x55       c54                           -26
    x55       c62                             1
    x56       c19                            -9
    x56       c35                            -2
    x56       c62                             1
    x57       c19                            -5
    x57       c29                            -2
    x57       c62                             1
    x58       c20                           -20
    x58       c62                             1
    x59       c20                           -22
    x59       c61                           -15
    x59       c62                             1
    x60       c20                            -3
    x60       c56                            -8
    x60       c62                             1
    x61       c20                            -8
    x61       c62                             1
    x62       c21                            -6
    x62       c25                            -1
    x62       c62                             1
    x63       c21                            -1
    x63       c62                             1
    x64       c21                            -6
    x64       c62                             1
    x65       c21                            -2
    x65       c62                             1
    x66       c21                            -2
    x66       c62                             1
    x67       c21                            -9
    x67       c62                             1
    x68       c21                            -4
    x68       c62                             1
    x69       c22                            -1
    x69       c62                             1
    x70       c23                           -21
    x70       c62                             1
    x71       c23                            -2
    x71       c62                             1
    x72       c25                            -4
    x72       c59                            -3
    x72       c62                             1
    x73       c25                            -4
    x73       c35                            -6
    x73       c51                           -49
    x73       c62                             1
    x74       c25                            -2
    x74       c62                             1
    x75       c26                            -1
    x75       c62                             1
    x76       c26                            -1
    x76       c62                             1
    x77       c26                            -1
    x77       c62                             1
    x78       c29                            -3
    x78       c62                             1
    x79       c29                            -3
    x79       c62                             1
    x80       c30                            -2
    x80       c62                             1
    x81       c31                            -4
    x81       c37                            -1
    x81       c54                           -18
    x81       c62                             1
    x82       c32                            -1
    x82       c62                             1
    x83       c32                            -3
    x83       c62                             1
    x84       c33                            -5
    x84       c62                             1
    x85       c34                           -72
    x85       c62                             1
    x86       c34                            -1
    x86       c44                            -2
    x86       c45                            -1
    x86       c47                            -2
    x86       c62                             1
    x87       c35                            -1
    x87       c51                           -20
    x87       c62                             1
    x88       c35                            -6
    x88       c43                           -16
    x88       c62                             1
    x89       c35                            -6
    x89       c62                             1
    x90       c35                            -2
    x90       c62                             1
    x91       c38                          -325
    x91       c45                            -1
    x91       c49                           -13
    x91       c62                             1
    x92       c39                            -6
    x92       c62                             1
    x93       c41                           -12
    x93       c62                             1
    x94       c41                            -1
    x94       c55                            -8
    x94       c60                           -17
    x94       c62                             1
    x95       c43                           -19
    x95       c62                             1
    x96       c43                            -8
    x96       c62                             1
    x97       c43                            -4
    x97       c62                             1
    x98       c44                            -2
    x98       c62                             1
    x99       c48                            -5
    x99       c51                           -13
    x99       c62                             1
    x100      c51                           -42
    x100      c62                             1
    x101      c53                            -4
    x101      c62                             1
    x102      c53                            -5
    x102      c62                             1
    x103      c54                           -21
    x103      c62                             1
    x104      c54                           -25
    x104      c62                             1
    x105      c56                           -11
    x105      c62                             1
    x106      c57                           -24
    x106      c62                             1
    x107      c58                            -3
    x107      c62                             1
    x108      c61                           -11
    x108      c62                             1
    MARK0001  'MARKER'                 'INTEND'
    Avar      c62                            -1
    Avar      c63                             1
    A_hat_0   c63                            -1
    A_hat_0   c72                             1
    A_hat_0   c73                             1
    A_hat_0   c90             -20.6912707211409
    A_hat_0   c91                            -2
    A_hat_0   c92                            -2
    A_hat_0   c93             -20.6912707211409
    A_hat_1   c63                            -1
    A_hat_1   c76                             1
    A_hat_1   c77                             1
    A_hat_1   c90                           -20
    A_hat_1   c91                            -1
    A_hat_1   c92                            -1
    A_hat_1   c93                           -20
    A_hat_2   c63                            -1
    A_hat_2   c80                             1
    A_hat_2   c81                             1
    A_hat_2   c90             -13.3333333333333
    A_hat_2   c91                            -1
    A_hat_2   c92                            -1
    A_hat_2   c93             -13.3333333333333
    A_hat_3   c63                            -1
    A_hat_3   c84                             1
    A_hat_3   c85                             1
    A_hat_3   c90                           -10
    A_hat_3   c93                           -10
    A_hat_4   c63                            -1
    A_hat_4   c88                             1
    A_hat_4   c89                             1
    A_hat_4   c90                            -8
    A_hat_4   c93                            -8
    t_hat_0   c64                            -1
    t_hat_0   c70                             1
    t_hat_0   c71                             1
    t_hat_0   c90                            -2
    t_hat_0   c91                            -1
    t_hat_0   c92                            -2
    t_hat_0   c93                            -1
    t_hat_1   c64                            -1
    t_hat_1   c74                             1
    t_hat_1   c75                             1
    t_hat_1   c90                            -3
    t_hat_1   c91                            -2
    t_hat_1   c92                            -3
    t_hat_1   c93                            -2
    t_hat_2   c64                            -1
    t_hat_2   c78                             1
    t_hat_2   c79                             1
    t_hat_2   c90                            -4
    t_hat_2   c91                            -3
    t_hat_2   c92                            -4
    t_hat_2   c93                            -3
    t_hat_3   c64                            -1
    t_hat_3   c82                             1
    t_hat_3   c83                             1
    t_hat_3   c90                            -5
    t_hat_3   c91                            -4
    t_hat_3   c92                            -5
    t_hat_3   c93                            -4
    t_hat_4   c64                            -1
    t_hat_4   c86                             1
    t_hat_4   c87                             1
    t_hat_4   c90                            -6
    t_hat_4   c91                            -5
    t_hat_4   c92                            -6
    t_hat_4   c93                            -5
    w         c65                             1
    w         c90                             1
    w         c91                             1
    w         c92                             1
    w         c93                             1
    MARK0002  'MARKER'                 'INTORG'
    z_0       c66                             1
    z_0       c70                            -2
    z_0       c71             -20.6912707211409
    z_0       c72                            -1
    z_0       c73                            -2
    z_0       c90              41.3825414422818
    z_0       c91                             2
    z_0       c92                             4
    z_0       c93              20.6912707211409
    z_1       c66                             1
    z_1       c74             -1.33333333333333
    z_1       c75                           -20
    z_1       c76                            -2
    z_1       c77                            -3
    z_1       c90                            60
    z_1       c91                             2
    z_1       c92                             3
    z_1       c93                            40
    z_2       c66                             1
    z_2       c78                            -1
    z_2       c79             -13.3333333333333
    z_2       c80                            -3
    z_2       c81                            -4
    z_2       c90              53.3333333333333
    z_2       c91                             3
    z_2       c92                             4
    z_2       c93                            40
    z_3       c66                             1
    z_3       c82                          -0.8
    z_3       c83                           -10
    z_3       c84                            -4
    z_3       c85                            -5
    z_3       c90                            50
    z_3       c93                            40
    z_4       c66                             1
    z_4       c86            -0.666666666666667
    z_4       c87                            -8
    z_4       c88                            -5
    z_4       c89                            -6
    z_4       c90                            48
    z_4       c93                            40
    MARK0003  'MARKER'                 'INTEND'
RHS
    rhs       c1                              4
    rhs       c2                             40
    rhs       c66                             1
    rhs       c67                            11
    rhs       c68                             1
    rhs       c69                       2.99999
BOUNDS
 LO bnd       t               0.043956043956044
 UP bnd       t                              40
 BV bnd       x2      
 BV bnd       x3      
 BV bnd       x4      
 BV bnd       x5      
 BV bnd       x6      
 BV bnd       x7      
 BV bnd       x8      
 BV bnd       x9      
 BV bnd       x10     
 BV bnd       x11     
 BV bnd       x12     
 BV bnd       x13     
 BV bnd       x14     
 BV bnd       x15     
 BV bnd       x16     
 BV bnd       x17     
 BV bnd       x18     
 BV bnd       x19     
 BV bnd       x20     
 BV bnd       x21     
 BV bnd       x22     
 BV bnd       x23     
 BV bnd       x24     
 BV bnd       x25     
 BV bnd       x26     
 BV bnd       x27     
 BV bnd       x28     
 BV bnd       x29     
 BV bnd       x30     
 BV bnd       x31     
 BV bnd       x32     
 BV bnd       x33     
 BV bnd       x34     
 BV bnd       x35     
 BV bnd       x36     
 BV bnd       x37     
 BV bnd       x38     
 BV bnd       x39     
 BV bnd       x40     
 BV bnd       x41     
 BV bnd       x42     
 BV bnd       x43     
 BV bnd       x44     
 BV bnd       x45     
 BV bnd       x46     
 BV bnd       x47     
 BV bnd       x48     
 BV bnd       x49     
 BV bnd       x50     
 BV bnd       x51     
 BV bnd       x52     
 BV bnd       x53     
 BV bnd       x54     
 BV bnd       x55     
 BV bnd       x56     
 BV bnd       x57     
 BV bnd       x58     
 BV bnd       x59     
 BV bnd       x60     
 BV bnd       x61     
 BV bnd       x62     
 BV bnd       x63     
 BV bnd       x64     
 BV bnd       x65     
 BV bnd       x66     
 BV bnd       x67     
 BV bnd       x68     
 BV bnd       x69     
 BV bnd       x70     
 BV bnd       x71     
 BV bnd       x72     
 BV bnd       x73     
 BV bnd       x74     
 BV bnd       x75     
 BV bnd       x76     
 BV bnd       x77     
 BV bnd       x78     
 BV bnd       x79     
 BV bnd       x80     
 BV bnd       x81     
 BV bnd       x82     
 BV bnd       x83     
 BV bnd       x84     
 BV bnd       x85     
 BV bnd       x86     
 BV bnd       x87     
 BV bnd       x88     
 BV bnd       x89     
 BV bnd       x90     
 BV bnd       x91     
 BV bnd       x92     
 BV bnd       x93     
 BV bnd       x94     
 BV bnd       x95     
 BV bnd       x96     
 BV bnd       x97     
 BV bnd       x98     
 BV bnd       x99     
 BV bnd       x100    
 BV bnd       x101    
 BV bnd       x102    
 BV bnd       x103    
 BV bnd       x104    
 BV bnd       x105    
 BV bnd       x106    
 BV bnd       x107    
 BV bnd       x108    
 UP bnd       Avar                           91
 UP bnd       A_hat_0                        91
 UP bnd       A_hat_1                        91
 UP bnd       A_hat_2                        91
 UP bnd       A_hat_3                        91
 UP bnd       A_hat_4                        91
 UP bnd       t_hat_0                        40
 UP bnd       t_hat_1                        40
 UP bnd       t_hat_2                        40
 UP bnd       t_hat_3                        40
 UP bnd       t_hat_4                        40
 UP bnd       w                            3640
 BV bnd       z_0     
 BV bnd       z_1     
 BV bnd       z_2     
 BV bnd       z_3     
 BV bnd       z_4     
ENDATA
